 200 27 
 69 74 95 28 80 25 40 72 67 21 42 92 
 17 55 63 57 27 15 37 85 69 47 6 48 
 26 47 50 
 27 
 1 2 3 4 5 6 7 8 9 10 11 12 
 13 14 15 16 17 18 19 20 21 22 23 24 
 25 26 27 
 10 
 2 4 8 9 14 16 19 21 25 26 
 3 
 1 16 24 
 23 
 1 2 3 4 5 6 7 8 9 10 12 13 
 14 15 16 17 18 19 20 21 23 24 25 
 5 
 1 4 19 20 24 
 20 
 1 3 4 5 6 7 8 9 10 11 13 16 
 17 18 19 21 23 24 26 27 
 7 
 3 8 11 15 20 25 26 
 26 
 1 2 3 4 5 6 7 9 10 11 12 13 
 14 15 16 17 18 19 20 21 22 23 24 25 
 26 27 
 21 
 1 2 3 4 5 6 7 8 10 14 15 16 
 17 19 20 21 22 23 24 25 27 
 17 
 1 3 7 8 9 10 11 12 14 16 18 19 
 21 22 23 24 25 
 27 
 1 2 3 4 5 6 7 8 9 10 11 12 
 13 14 15 16 17 18 19 20 21 22 23 24 
 25 26 27 
 9 
 1 2 3 5 17 19 20 23 25 
 18 
 1 2 3 4 6 7 9 11 14 15 17 18 
 21 23 24 25 26 27 
 14 
 1 3 5 6 8 9 12 13 15 16 17 22 
 24 26 
 24 
 1 3 4 5 6 7 8 9 10 11 12 13 
 14 15 16 17 18 19 20 21 22 23 25 26 
 11 
 3 7 8 11 12 15 16 20 23 24 26 
 14 
 2 4 5 7 9 11 12 13 14 18 20 22 
 24 27 
 6 
 2 3 4 7 9 12 
 8 
 5 6 7 12 18 19 20 25 
 24 
 1 2 3 4 5 6 7 8 9 11 12 13 
 14 15 17 19 20 21 22 23 24 25 26 27 
 25 
 1 2 3 5 6 7 8 9 10 11 12 13 
 14 15 16 17 18 19 20 21 22 23 24 25 
 27 
 26 
 1 2 3 4 5 6 7 8 9 10 11 12 
 13 14 15 16 17 18 19 20 21 22 23 24 
 26 27 
 14 
 1 2 3 5 7 8 10 11 14 15 16 22 
 23 26 
 12 
 1 4 5 7 10 11 13 15 16 17 20 27 
 15 
 3 4 8 9 12 13 14 15 17 19 20 23 
 24 25 27 
 5 
 1 6 9 10 18 
 8 
 1 2 7 11 13 19 20 26 
 2 
 2 15 
 11 
 3 6 7 8 9 13 14 18 19 25 26 
 23 
 1 2 4 5 7 8 9 10 11 12 13 14 
 15 16 17 18 20 21 22 24 25 26 27 
 10 
 5 7 8 9 10 12 14 18 25 27 
 17 
 1 3 4 5 6 9 11 12 14 15 16 18 
 19 22 23 24 26 
 15 
 2 3 4 6 8 9 11 12 13 15 18 22 
 23 24 25 
 10 
 2 3 7 11 15 16 20 21 23 26 
 4 
 6 7 19 23 
 11 
 3 6 7 11 12 13 16 17 20 22 24 
 9 
 6 7 11 12 13 14 16 17 25 
 10 
 2 4 8 10 11 12 14 19 22 27 
 19 
 1 2 3 4 5 8 11 13 16 17 18 19 
 20 21 22 24 25 26 27 
 4 
 5 7 8 10 
 18 
 1 2 3 4 5 7 8 9 10 11 14 15 
 21 23 24 25 26 27 
 9 
 2 6 10 14 18 21 22 23 24 
 18 
 4 6 7 9 11 12 14 15 16 17 19 20 
 22 23 24 25 26 27 
 17 
 5 7 9 11 13 14 15 16 17 18 20 22 
 23 24 25 26 27 
 24 
 1 2 3 4 5 6 7 8 9 11 12 13 
 14 16 17 18 19 20 22 23 24 25 26 27 
 8 
 2 3 5 7 13 16 19 26 
 23 
 1 2 3 4 5 6 7 8 9 10 11 12 
 14 15 17 18 19 20 21 22 24 25 26 
 4 
 7 11 21 23 
 8 
 3 10 14 16 19 22 23 26 
 20 
 2 3 4 5 6 8 9 12 13 14 15 16 
 17 20 21 22 23 24 25 27 
 6 
 8 10 12 21 22 27 
 9 
 2 3 13 14 20 21 25 26 27 
 9 
 1 2 5 9 10 13 15 21 26 
 21 
 2 3 4 5 6 7 8 10 11 13 14 15 
 17 18 20 21 22 23 24 26 27 
 18 
 1 2 3 5 6 8 10 13 14 15 16 17 
 18 20 23 24 26 27 
 16 
 1 2 4 7 8 10 12 14 15 17 18 20 
 21 24 25 26 
 12 
 1 3 4 5 6 7 8 17 21 23 24 26 
 21 
 2 3 5 6 7 8 9 10 12 14 15 16 
 17 18 19 20 22 24 25 26 27 
 19 
 1 2 4 5 6 7 10 11 12 13 14 17 
 18 19 20 21 25 26 27 
 11 
 1 3 4 5 8 12 13 16 17 23 25 
 8 
 8 10 11 12 14 16 24 26 
 26 
 1 2 4 5 6 7 8 9 10 11 12 13 
 14 15 16 17 18 19 20 21 22 23 24 25 
 26 27 
 14 
 1 5 6 7 9 11 12 16 20 21 22 24 
 25 27 
 7 
 2 5 6 14 15 21 27 
 15 
 5 9 11 12 13 17 18 19 20 21 23 24 
 25 26 27 
 4 
 11 13 17 18 
 26 
 1 2 3 4 5 6 7 9 10 11 12 13 
 14 15 16 17 18 19 20 21 22 23 24 25 
 26 27 
 6 
 8 12 18 19 21 25 
 4 
 5 12 13 14 
 2 
 12 13 
 8 
 4 7 11 12 14 16 21 24 
 25 
 1 2 3 4 5 6 7 8 9 10 11 12 
 14 15 16 17 19 20 21 22 23 24 25 26 
 27 
 18 
 3 5 6 8 9 10 11 13 14 15 16 17 
 19 20 21 23 26 27 
 24 
 1 2 3 4 5 6 7 8 10 11 12 13 
 16 17 18 19 20 21 22 23 24 25 26 27 
 13 
 2 4 5 8 9 12 16 17 18 20 22 24 
 26 
 9 
 3 6 9 10 11 12 14 22 26 
 19 
 1 2 4 6 7 8 9 11 12 14 15 16 
 17 20 22 23 24 26 27 
 19 
 1 3 4 6 7 8 10 12 13 14 15 18 
 19 20 21 22 23 24 25 
 25 
 1 2 3 4 5 6 7 8 9 10 11 12 
 13 15 17 18 19 20 21 22 23 24 25 26 
 27 
 8 
 13 14 15 21 22 23 25 26 
 19 
 1 2 3 4 8 9 10 11 12 16 17 18 
 20 21 22 23 24 25 27 
 13 
 1 2 4 5 6 7 8 9 12 16 18 19 
 23 
 20 
 2 3 5 6 7 8 9 11 12 13 14 15 
 18 19 20 21 22 24 26 27 
 13 
 2 3 4 5 8 10 11 13 15 18 22 23 
 24 
 18 
 1 2 4 6 8 9 11 12 14 16 17 18 
 20 21 22 23 25 26 
 23 
 1 2 3 4 5 7 8 9 10 11 12 13 
 14 15 16 17 18 19 22 24 25 26 27 
 11 
 5 9 13 14 16 18 19 20 21 22 25 
 3 
 11 13 15 
 19 
 1 2 3 4 5 8 9 10 11 12 14 15 
 17 18 19 20 23 26 27 
 5 
 2 11 16 18 22 
 14 
 2 3 4 6 7 10 11 12 13 14 16 18 
 20 23 
 5 
 11 19 20 23 26 
 3 
 3 4 25 
 4 
 4 6 12 17 
 7 
 2 3 11 13 15 18 24 
 3 
 13 22 24 
 10 
 2 6 9 14 15 18 19 21 25 27 
 8 
 2 4 7 8 9 10 23 26 
 9 
 6 12 13 17 18 22 23 24 27 
 12 
 1 4 5 7 8 14 16 18 21 22 23 27 
 3 
 4 15 17 
 25 
 1 2 3 4 5 6 8 9 10 11 12 13 
 14 15 16 17 18 19 21 22 23 24 25 26 
 27 
 13 
 3 4 5 6 7 8 12 13 16 17 19 21 
 24 
 27 
 1 2 3 4 5 6 7 8 9 10 11 12 
 13 14 15 16 17 18 19 20 21 22 23 24 
 25 26 27 
 13 
 1 2 5 10 13 15 16 17 19 21 23 24 
 25 
 11 
 1 3 7 8 11 14 16 17 19 21 27 
 11 
 1 3 5 11 12 14 15 19 20 21 22 
 21 
 1 2 3 4 5 7 8 9 10 11 12 13 
 14 15 16 17 18 20 21 23 27 
 21 
 1 3 4 5 7 8 9 10 11 13 14 15 
 16 17 18 20 23 24 25 26 27 
 23 
 1 2 3 4 5 6 7 8 9 10 11 12 
 14 15 16 17 19 20 21 22 23 24 27 
 27 
 1 2 3 4 5 6 7 8 9 10 11 12 
 13 14 15 16 17 18 19 20 21 22 23 24 
 25 26 27 
 16 
 1 3 4 5 6 7 8 10 11 12 13 14 
 17 21 22 27 
 7 
 2 9 17 20 21 24 25 
 26 
 1 2 3 4 5 6 7 8 9 10 11 12 
 13 14 15 16 17 18 19 20 21 22 23 24 
 25 26 
 12 
 2 5 6 9 11 17 19 20 22 23 26 27 
 14 
 1 3 4 7 9 14 18 19 20 22 23 24 
 25 27 
 5 
 20 21 22 25 27 
 14 
 1 3 5 9 10 12 14 15 17 18 21 24 
 26 27 
 21 
 1 3 4 5 8 9 10 11 12 13 14 15 
 17 18 19 20 21 22 25 26 27 
 5 
 1 6 10 14 18 
 23 
 2 3 4 5 6 7 8 9 10 11 12 13 
 14 15 17 18 21 22 23 24 25 26 27 
 2 
 12 24 
 26 
 1 2 3 4 5 6 7 8 9 10 11 12 
 13 14 15 16 18 19 20 21 22 23 24 25 
 26 27 
 27 
 1 2 3 4 5 6 7 8 9 10 11 12 
 13 14 15 16 17 18 19 20 21 22 23 24 
 25 26 27 
 19 
 1 2 3 4 5 6 7 9 10 14 15 17 
 18 20 23 24 25 26 27 
 2 
 11 12 
 8 
 2 4 7 12 14 17 24 25 
 11 
 1 2 3 7 9 14 15 18 22 23 26 
 20 
 1 2 3 4 5 7 8 9 10 11 12 13 
 14 17 20 22 23 24 25 26 
 20 
 1 2 3 4 5 6 9 10 11 13 15 16 
 18 19 21 22 23 25 26 27 
 13 
 3 4 8 10 12 15 17 18 19 20 23 25 
 27 
 9 
 11 16 17 18 22 23 24 26 27 
 26 
 1 2 3 4 5 6 7 8 9 10 11 13 
 14 15 16 17 18 19 20 21 22 23 24 25 
 26 27 
 25 
 1 2 3 4 5 6 7 8 9 10 11 12 
 13 14 15 16 17 19 21 22 23 24 25 26 
 27 
 21 
 1 3 4 5 6 7 8 9 10 11 12 13 
 14 15 18 19 20 21 22 25 27 
 16 
 1 4 5 6 7 9 10 11 15 16 17 19 
 21 23 26 27 
 6 
 2 7 12 23 26 27 
 14 
 2 3 5 7 8 11 13 15 18 19 20 23 
 24 26 
 14 
 1 3 4 5 8 9 11 13 14 18 19 20 
 21 24 
 12 
 4 5 7 8 12 13 14 18 21 23 26 27 
 16 
 1 2 3 7 9 10 11 12 16 18 19 20 
 22 24 25 27 
 10 
 1 6 8 9 13 15 17 21 22 27 
 12 
 1 4 7 9 11 12 13 14 15 16 20 26 
 24 
 1 2 3 4 5 6 7 8 9 10 11 12 
 13 14 16 17 18 19 20 21 23 24 25 26 
 4 
 5 6 24 27 
 23 
 1 3 4 5 7 8 9 10 11 12 13 15 
 16 18 19 20 21 22 23 24 25 26 27 
 13 
 2 6 8 10 11 12 13 15 17 20 21 26 
 27 
 3 
 18 19 20 
 11 
 1 2 3 5 6 15 18 23 24 25 26 
 12 
 2 4 8 10 12 15 16 18 19 23 25 27 
 25 
 1 2 3 4 5 6 8 9 10 11 12 14 
 15 16 17 18 19 20 21 22 23 24 25 26 
 27 
 12 
 2 3 5 6 14 15 16 19 24 25 26 27 
 26 
 1 2 3 4 5 6 7 8 9 10 11 12 
 13 14 15 17 18 19 20 21 22 23 24 25 
 26 27 
 7 
 1 4 6 18 24 25 27 
 5 
 5 10 11 12 13 
 12 
 1 6 8 11 12 13 15 16 18 22 25 27 
 14 
 3 6 8 9 10 14 15 16 18 20 21 23 
 25 27 
 13 
 3 6 7 9 11 12 18 19 21 22 24 25 
 26 
 26 
 1 2 3 4 5 6 7 8 9 10 11 12 
 13 14 15 17 18 19 20 21 22 23 24 25 
 26 27 
 3 
 9 17 26 
 2 
 10 12 
 9 
 2 3 6 9 12 13 16 18 27 
 22 
 1 2 3 4 6 7 8 9 10 11 13 15 
 16 17 19 20 21 22 24 25 26 27 
 20 
 2 3 5 7 8 9 10 12 13 15 16 18 
 20 21 22 23 24 25 26 27 
 14 
 1 2 4 9 10 11 12 13 14 19 22 25 
 26 27 
 13 
 3 6 8 9 10 11 12 14 20 21 23 25 
 27 
 27 
 1 2 3 4 5 6 7 8 9 10 11 12 
 13 14 15 16 17 18 19 20 21 22 23 24 
 25 26 27 
 9 
 1 2 4 9 11 15 18 25 26 
 9 
 1 5 6 7 9 10 15 16 26 
 20 
 1 2 4 5 6 7 8 9 10 13 14 15 
 17 18 19 20 22 23 25 26 
 24 
 1 2 3 4 6 7 8 9 10 12 14 15 
 16 17 18 19 20 21 22 23 24 25 26 27 
 5 
 4 9 17 23 25 
 15 
 2 5 6 8 9 10 11 13 15 18 19 22 
 24 25 27 
 6 
 9 19 20 24 25 26 
 27 
 1 2 3 4 5 6 7 8 9 10 11 12 
 13 14 15 16 17 18 19 20 21 22 23 24 
 25 26 27 
 21 
 4 5 6 7 8 10 11 12 14 15 17 18 
 19 20 21 22 23 24 25 26 27 
 27 
 1 2 3 4 5 6 7 8 9 10 11 12 
 13 14 15 16 17 18 19 20 21 22 23 24 
 25 26 27 
 23 
 3 4 5 6 7 8 10 11 12 13 14 16 
 17 18 19 20 21 22 23 24 25 26 27 
 17 
 1 3 5 10 12 14 15 16 17 18 20 21 
 22 24 25 26 27 
 6 
 6 9 11 12 21 26 
 11 
 1 3 5 6 16 18 19 23 25 26 27 
 10 
 3 4 13 15 19 20 21 22 23 27 
 21 
 2 4 5 6 7 9 11 13 14 15 16 17 
 18 19 20 21 22 23 24 26 27 
 18 
 1 2 3 4 7 8 12 13 14 15 16 17 
 19 20 21 22 24 25 
 3 
 3 8 21 
 20 
 1 2 3 4 5 10 12 13 14 17 18 19 
 20 21 22 23 24 25 26 27 
 2 
 14 23 
 6 
 5 6 9 13 14 23 
 12 
 2 3 4 7 8 9 11 15 17 18 19 20 
 18 
 1 2 3 4 5 9 10 14 15 16 17 18 
 19 20 22 25 26 27 
 4 
 9 12 18 25 
 9 
 1 8 9 12 18 19 21 22 27 
 14 
 4 6 7 9 12 14 15 16 18 20 21 24 
 25 27 
 3 
 6 8 24 
 23 
 1 2 3 4 5 6 7 8 9 10 11 12 
 13 15 16 17 18 20 23 24 25 26 27 
 25 
 1 2 3 4 5 6 7 8 9 10 12 13 
 14 15 16 17 19 20 21 22 23 24 25 26 
 27 
 4 
 9 13 17 20 
 25 
 1 2 3 4 5 6 7 8 10 11 12 13 
 15 16 17 18 19 20 21 22 23 24 25 26 
 27 
 24 
 1 2 3 4 5 7 8 9 10 11 12 14 
 15 16 17 18 19 20 21 22 23 24 25 27 
 15 
 2 3 4 5 6 7 11 14 15 16 18 19 
 23 26 27 
 